# Problem from Gecode/examples/minesweeper.cc  problem 8

param r := 7;
param c := 7;
param game: 1 2 3 4 5 6 7 :=
    1   . . . . . . . 
    2   . 2 3 4 3 5 . 
    3   . 1 . . . 3 . 
    4   . . . 5 . . . 
    5   . 1 . . . 3 . 
    6   . 1 2 2 3 4 . 
    7   . . . . . . . 
;
